Results/Experiment 1 Results/Existing Benchmark/RES_80/i-80-100-20.txt
solutions: 0 nodes: 2  modelTime: 115  solveTime: 23  totalTime: 153  modelSize: 7851  readTime: 15 matchingSize: 0
