Results/Experiment 2 Results/Existing Benchmark/i-80-100-20.lp
clingo version 5.4.0
Reading from tempSRTISolver.lp ...
Solving...
UNSATISFIABLE

Models       : 0
Calls        : 1
Time         : 25.900s (Solving: 1.18s 1st Model: 0.00s Unsat: 1.18s)
CPU Time     : 25.899s
